c CNF-Signature AND_14
c 
c $p 14 1
c $m (1,2,3,4,5,6,7,8,9,10,11,12,13,14,15)
c $i 1
c $i 2
c $i 3
c $i 4
c $i 5
c $i 6
c $i 7
c $i 8
c $i 9
c $i 10
c $i 11
c $i 12
c $i 13
c $i 14
c $o 15
p cnf 15 15
1 -15 0
2 -15 0
3 -15 0
4 -15 0
5 -15 0
6 -15 0
7 -15 0
8 -15 0
9 -15 0
10 -15 0
11 -15 0
12 -15 0
13 -15 0
14 -15 0
-1 -2 -3 -4 -5 -6 -7 -8 -9 -10 -11 -12 -13 -14 15 0
